69 207
12 13 26 36 43 54 63
6 9
23 24
42 51
14 46 47 53
2 62
39
31 50
2 69
28 30 49 69
20 24
1 13 26 36 43 54 63
1 12 26 36 43 54 63
5 16 46 47 53
66 17
14 17
16 15
44 45 58 19
18
11 56
33 57
25 56
3 59
3 11 27
22 27
1 12 13 36 43 54 63
25 24
10 49 52 69
68
10 49 69
8 50 32
31 40
21 57
35 38 60
34 60
1 12 13 26 43 48 54 63
64 67
34 60
7 40
39 32
66
4 51
1 12 13 26 36 54 63
18 45 48 58
18 44 58
5 14 47 53
5 14 46 53
36 44
10 28 30 52 69
8 31
4 42 55
28 49 69
5 14 46 47
1 12 13 26 36 43 55 63
51 54
20 22
21 33
18 44 45
23
34 35 38

6 65
1 12 13 26 36 43 54
37 67
62
15 41
37 64
29
9 10 28 30 49 52
